
Gurobi 10.0.1 (win64) logging started Thu May 18 16:25:12 2023

Set parameter LogFile to value "results/log/Fattahi_setup_03_modificated.log"
Gurobi Optimizer version 10.0.1 build v10.0.1rc0 (win64)

CPU model: AMD Ryzen 7 3700X 8-Core Processor, instruction set [SSE2|AVX|AVX2]
Thread count: 8 physical cores, 16 logical processors, using up to 16 threads

Optimize a model with 84 rows, 57 columns and 308 nonzeros
Model fingerprint: 0x199f17d6
Variable types: 0 continuous, 57 integer (46 binary)
Coefficient statistics:
  Matrix range     [1e+00, 1e+09]
  Objective range  [1e+00, 1e+00]
  Bounds range     [1e+00, 1e+00]
  RHS range        [1e+00, 3e+09]
Warning: Model contains large matrix coefficients
Warning: Model contains large rhs
         Consider reformulating model or setting NumericFocus parameter
         to avoid numerical issues.
Presolve removed 27 rows and 30 columns
Presolve time: 0.00s
Presolved: 57 rows, 27 columns, 224 nonzeros
Variable types: 0 continuous, 27 integer (17 binary)

Root relaxation: objective 4.580000e+02, 8 iterations, 0.00 seconds (0.00 work units)

    Nodes    |    Current Node    |     Objective Bounds      |     Work
 Expl Unexpl |  Obj  Depth IntInf | Incumbent    BestBd   Gap | It/Node Time

     0     0  458.00000    0    6          -  458.00000      -     -    0s
H    0     0                     682.0000000  458.00000  32.8%     -    0s
H    0     0                     618.0000000  458.00000  25.9%     -    0s
     0     0  468.00000    0    6  618.00000  468.00000  24.3%     -    0s
H    0     0                     600.0000000  468.00000  22.0%     -    0s
     0     0  468.00000    0    8  600.00000  468.00000  22.0%     -    0s
     0     0  555.00000    0   10  600.00000  555.00000  7.50%     -    0s

Cutting planes:
  Learned: 1
  Implied bound: 1
  MIR: 1
  Mod-K: 1

Explored 1 nodes (19 simplex iterations) in 0.01 seconds (0.00 work units)
Thread count was 16 (of 16 available processors)

Solution count 3: 600 618 682 

Optimal solution found (tolerance 1.00e-04)
Best objective 6.000000000000e+02, best bound 6.000000000000e+02, gap 0.0000%
Warning: variable name "y[job:0, stage:0, machine:1]" has a space
Warning: constraint name "precedence between 0,1 to 0,0 if x_[j,l,h,z,i]=1" has a space
Warning: to let Gurobi read it back, use rlp format
Warning: variable name "y[job:0, stage:0, machine:1]" has a space
Warning: constraint name "precedence between 0,1 to 0,0 if x_[j,l,h,z,i]=1" has a space
Warning: default variable names used to write mps file
Warning: default constraint names used to write mps file
Warning: variable name "y[job:0, stage:0, machine:1]" has a space
Warning: default variable names used to write solution file
